20
90.0
0 19 5.18 6.21
1 18 4.41 4.43
2 17 5.17 4.84
3 16 4.88 3.64
4 15 4.2 4.64
5 14 5.06 4.45
6 13 5.24 5.33
7 12 6.22 5.09
8 11 4.44 6.08
9 10 5.05 5.38
10 9 4.23 4.2
11 8 5.64 5.39
12 7 3.33 4.87
13 6 5.05 5.0
14 5 2.56 4.56
15 4 3.35 7.1
16 3 3.29 1.4
17 2 4.86 4.66
18 1 9.43 7.28
